networks/zoo_10_12/zoo_10_12-lower.txt
Number of groups: 5
Flow 3: {1 3 0} {3 8 0} 
Flow 4: {2 1 0} {1 4 0} {4 9 0} 
Flow 6: {3 1 0} {1 6 0} 
Flow 8: {4 1 0} {1 5 0} {5 10 0} 
Flow 10: {5 1 0} {1 2 0} {2 7 0} 
Time taken running everything: 0 seconds
