networks/zoo_10_12/zoo_10_12-lower.sol
<?xml version = "1.0" encoding="UTF-8" standalone="yes"?>
<CPLEXSolution version="1.2">
 <header
   problemName="networks/zoo_10_12/zoo_10_12-lower.lp"
   solutionName="incumbent"
   solutionIndex="-1"
   objectiveValue="5"
   solutionTypeValue="3"
   solutionTypeString="primal"
   solutionStatusValue="101"
   solutionStatusString="integer optimal solution"
   solutionMethodString="mip"
   primalFeasible="1"
   dualFeasible="1"
   MIPNodes="0"
   MIPIterations="0"
   writeLevel="3"/>
 <quality
   epInt="1.0000000000000001e-05"
   epRHS="9.9999999999999995e-07"
   maxIntInfeas="0"
   maxPrimalInfeas="0"
   maxX="1"
   maxSlack="1"/>
 <variables>
  <variable name="Y(1,5)" index="4" value="1"/>
  <variable name="Y(2,1)" index="10" value="1"/>
  <variable name="Y(3,3)" index="22" value="1"/>
  <variable name="Y(4,4)" index="33" value="1"/>
  <variable name="Y(10,2)" index="91" value="1"/>
  <variable name="X(1,2,10)" index="129" value="1"/>
  <variable name="X(1,3,3)" index="134" value="1"/>
  <variable name="X(1,4,4)" index="147" value="1"/>
  <variable name="X(1,5,1)" index="156" value="1"/>
  <variable name="X(1,6,2)" index="169" value="1"/>
  <variable name="X(2,1,2)" index="181" value="1"/>
  <variable name="X(2,7,10)" index="201" value="1"/>
  <variable name="X(3,1,6)" index="209" value="1"/>
  <variable name="X(3,8,3)" index="218" value="1"/>
  <variable name="X(4,1,7)" index="234" value="1"/>
  <variable name="X(4,9,4)" index="243" value="1"/>
  <variable name="X(5,1,9)" index="260" value="1"/>
  <variable name="X(5,10,1)" index="264" value="1"/>
 </variables>
</CPLEXSolution>
